32 100000
54624 80
11956 44
43747 12
77377 58
75824 74
63365 82
6534 24
54745 81
28133 42
95793 82
44669 65
3284 44
3822 24
45923 33
60037 78
57299 25
73925 78
59369 45
21930 25
381 71
66072 90
97449 53
35147 24
39113 4
3890 96
48333 76
10063 1
10882 70
74428 71
14310 23
48125 73
81982 95
